row=8;
Board=[|1,2,9,6,-1,-1,0,-1,5,-1|-1,-1,-1,0,1,-1,-1,-1,4,-1|9,0,-1,3,-1,-1,-1,8,7,2|4,-1,-1,-1,9,-1,1,-1,6,-1|2,-1,4,-1,-1,-1,3,-1,-1,-1|-1,-1,9,2,-1,6,8,-1,-1,1|2,1,0,5,9,-1,-1,6,-1,7|-1,-1,9,4,-1,7,0,-1,3,1|];
bottom=[38,21,44,34,35,41,25,47,41,34]